wcsp 100 3 501 512409557603043100
3 3 3 3 3 3 3 3 3 3 3 3 3 3 3 3 3 3 3 3 3 3 3 3 3 3 3 3 3 3 3 3 3 3 3 3 3 3 3 3 3 3 3 3 3 3 3 3 3 3 3 3 3 3 3 3 3 3 3 3 3 3 3 3 3 3 3 3 3 3 3 3 3 3 3 3 3 3 3 3 3 3 3 3 3 3 3 3 3 3 3 3 3 3 3 3 3 3 3 3
2 45 65 0 9
0 0 0
0 1 2
0 2 3
1 0 3
1 1 3
1 2 0
2 0 0
2 1 3
2 2 0
2 27 79 0 9
0 0 0
0 1 0
0 2 0
1 0 1
1 1 3
1 2 3
2 0 1
2 1 1
2 2 0
2 63 90 0 9
0 0 0
0 1 2
0 2 3
1 0 2
1 1 0
1 2 1
2 0 0
2 1 1
2 2 0
2 31 58 0 9
0 0 1
0 1 0
0 2 3
1 0 1
1 1 0
1 2 3
2 0 0
2 1 1
2 2 0
2 9 48 0 9
0 0 0
0 1 0
0 2 0
1 0 3
1 1 2
1 2 0
2 0 3
2 1 1
2 2 2
2 5 54 0 9
0 0 3
0 1 2
0 2 0
1 0 2
1 1 0
1 2 0
2 0 0
2 1 2
2 2 3
2 17 79 0 9
0 0 3
0 1 3
0 2 3
1 0 1
1 1 0
1 2 2
2 0 0
2 1 0
2 2 0
2 13 85 0 9
0 0 0
0 1 0
0 2 0
1 0 0
1 1 1
1 2 3
2 0 1
2 1 1
2 2 1
2 30 75 0 9
0 0 0
0 1 1
0 2 1
1 0 0
1 1 2
1 2 0
2 0 2
2 1 3
2 2 0
2 2 7 0 9
0 0 1
0 1 1
0 2 0
1 0 0
1 1 0
1 2 0
2 0 1
2 1 1
2 2 2
2 21 50 0 9
0 0 1
0 1 1
0 2 1
1 0 0
1 1 0
1 2 2
2 0 0
2 1 0
2 2 3
2 12 49 0 9
0 0 0
0 1 1
0 2 0
1 0 1
1 1 3
1 2 3
2 0 0
2 1 2
2 2 0
2 4 37 0 9
0 0 3
0 1 2
0 2 0
1 0 0
1 1 2
1 2 2
2 0 0
2 1 0
2 2 3
2 81 84 0 9
0 0 1
0 1 1
0 2 0
1 0 1
1 1 2
1 2 0
2 0 1
2 1 0
2 2 0
2 66 71 0 9
0 0 2
0 1 1
0 2 3
1 0 0
1 1 0
1 2 0
2 0 0
2 1 2
2 2 1
2 50 78 0 9
0 0 1
0 1 1
0 2 2
1 0 1
1 1 0
1 2 0
2 0 0
2 1 0
2 2 1
2 57 81 0 9
0 0 0
0 1 3
0 2 1
1 0 0
1 1 0
1 2 0
2 0 1
2 1 3
2 2 2
2 11 14 0 9
0 0 0
0 1 0
0 2 3
1 0 2
1 1 0
1 2 0
2 0 3
2 1 1
2 2 2
2 23 50 0 9
0 0 0
0 1 3
0 2 0
1 0 2
1 1 0
1 2 1
2 0 3
2 1 2
2 2 0
2 55 69 0 9
0 0 0
0 1 1
0 2 0
1 0 3
1 1 2
1 2 2
2 0 0
2 1 3
2 2 0
2 7 28 0 9
0 0 2
0 1 3
0 2 0
1 0 2
1 1 0
1 2 2
2 0 0
2 1 0
2 2 2
2 50 67 0 9
0 0 0
0 1 2
0 2 1
1 0 1
1 1 0
1 2 0
2 0 2
2 1 0
2 2 2
2 3 32 0 9
0 0 0
0 1 3
0 2 0
1 0 3
1 1 2
1 2 1
2 0 3
2 1 0
2 2 0
2 7 66 0 9
0 0 1
0 1 0
0 2 1
1 0 1
1 1 0
1 2 0
2 0 1
2 1 0
2 2 3
2 41 46 0 9
0 0 0
0 1 2
0 2 3
1 0 1
1 1 0
1 2 1
2 0 0
2 1 0
2 2 2
2 16 71 0 9
0 0 0
0 1 2
0 2 2
1 0 0
1 1 0
1 2 2
2 0 1
2 1 0
2 2 3
2 46 79 0 9
0 0 0
0 1 0
0 2 1
1 0 3
1 1 3
1 2 0
2 0 1
2 1 0
2 2 2
2 27 82 0 9
0 0 0
0 1 0
0 2 3
1 0 1
1 1 1
1 2 0
2 0 1
2 1 2
2 2 0
2 28 99 0 9
0 0 3
0 1 1
0 2 1
1 0 2
1 1 0
1 2 0
2 0 1
2 1 0
2 2 0
2 37 54 0 9
0 0 0
0 1 0
0 2 3
1 0 1
1 1 2
1 2 0
2 0 0
2 1 2
2 2 3
2 37 64 0 9
0 0 3
0 1 0
0 2 2
1 0 3
1 1 0
1 2 0
2 0 0
2 1 1
2 2 3
2 34 61 0 9
0 0 0
0 1 0
0 2 1
1 0 2
1 1 2
1 2 2
2 0 3
2 1 0
2 2 0
2 67 92 0 9
0 0 1
0 1 0
0 2 0
1 0 0
1 1 1
1 2 1
2 0 2
2 1 3
2 2 0
2 56 73 0 9
0 0 1
0 1 2
0 2 0
1 0 1
1 1 3
1 2 0
2 0 0
2 1 0
2 2 3
2 21 76 0 9
0 0 2
0 1 0
0 2 0
1 0 1
1 1 1
1 2 0
2 0 0
2 1 3
2 2 2
2 29 54 0 9
0 0 0
0 1 0
0 2 3
1 0 0
1 1 3
1 2 0
2 0 2
2 1 3
2 2 1
2 67 91 0 9
0 0 0
0 1 2
0 2 0
1 0 0
1 1 3
1 2 1
2 0 0
2 1 3
2 2 2
2 39 77 0 9
0 0 0
0 1 1
0 2 0
1 0 3
1 1 3
1 2 2
2 0 2
2 1 0
2 2 0
2 41 83 0 9
0 0 3
0 1 0
0 2 0
1 0 1
1 1 0
1 2 3
2 0 1
2 1 0
2 2 2
2 24 98 0 9
0 0 1
0 1 2
0 2 0
1 0 1
1 1 0
1 2 2
2 0 0
2 1 2
2 2 0
2 2 43 0 9
0 0 0
0 1 0
0 2 0
1 0 3
1 1 1
1 2 3
2 0 0
2 1 2
2 2 1
2 53 83 0 9
0 0 0
0 1 1
0 2 3
1 0 1
1 1 0
1 2 3
2 0 0
2 1 2
2 2 0
2 14 86 0 9
0 0 2
0 1 3
0 2 0
1 0 1
1 1 0
1 2 0
2 0 2
2 1 2
2 2 0
2 9 32 0 9
0 0 2
0 1 3
0 2 1
1 0 1
1 1 0
1 2 0
2 0 1
2 1 0
2 2 0
2 65 89 0 9
0 0 0
0 1 3
0 2 1
1 0 0
1 1 0
1 2 1
2 0 0
2 1 1
2 2 1
2 31 44 0 9
0 0 2
0 1 1
0 2 2
1 0 2
1 1 3
1 2 0
2 0 0
2 1 0
2 2 0
2 30 82 0 9
0 0 2
0 1 0
0 2 0
1 0 1
1 1 1
1 2 1
2 0 0
2 1 2
2 2 0
2 5 30 0 9
0 0 2
0 1 0
0 2 2
1 0 0
1 1 2
1 2 2
2 0 0
2 1 1
2 2 0
2 67 69 0 9
0 0 0
0 1 2
0 2 1
1 0 1
1 1 0
1 2 2
2 0 2
2 1 0
2 2 0
2 74 96 0 9
0 0 0
0 1 3
0 2 0
1 0 0
1 1 2
1 2 0
2 0 2
2 1 3
2 2 2
2 53 82 0 9
0 0 0
0 1 2
0 2 3
1 0 0
1 1 1
1 2 0
2 0 0
2 1 2
2 2 2
2 31 39 0 9
0 0 3
0 1 1
0 2 0
1 0 0
1 1 1
1 2 0
2 0 0
2 1 2
2 2 3
2 21 99 0 9
0 0 3
0 1 0
0 2 2
1 0 0
1 1 1
1 2 0
2 0 0
2 1 2
2 2 2
2 23 59 0 9
0 0 0
0 1 0
0 2 1
1 0 1
1 1 0
1 2 1
2 0 2
2 1 0
2 2 2
2 19 65 0 9
0 0 0
0 1 0
0 2 0
1 0 1
1 1 3
1 2 3
2 0 0
2 1 3
2 2 2
2 32 87 0 9
0 0 3
0 1 1
0 2 0
1 0 2
1 1 2
1 2 1
2 0 0
2 1 0
2 2 0
2 28 96 0 9
0 0 2
0 1 2
0 2 3
1 0 2
1 1 0
1 2 0
2 0 3
2 1 0
2 2 0
2 72 74 0 9
0 0 3
0 1 0
0 2 0
1 0 3
1 1 3
1 2 0
2 0 2
2 1 3
2 2 0
2 23 99 0 9
0 0 1
0 1 3
0 2 0
1 0 0
1 1 0
1 2 3
2 0 2
2 1 2
2 2 0
2 65 76 0 9
0 0 3
0 1 0
0 2 0
1 0 3
1 1 0
1 2 1
2 0 1
2 1 1
2 2 0
2 30 89 0 9
0 0 2
0 1 3
0 2 0
1 0 0
1 1 1
1 2 1
2 0 0
2 1 1
2 2 0
2 13 69 0 9
0 0 1
0 1 0
0 2 0
1 0 0
1 1 2
1 2 1
2 0 2
2 1 0
2 2 2
2 14 90 0 9
0 0 0
0 1 2
0 2 0
1 0 1
1 1 3
1 2 1
2 0 0
2 1 2
2 2 0
2 43 44 0 9
0 0 0
0 1 0
0 2 0
1 0 2
1 1 1
1 2 0
2 0 1
2 1 1
2 2 3
2 6 49 0 9
0 0 0
0 1 3
0 2 0
1 0 0
1 1 3
1 2 2
2 0 2
2 1 2
2 2 0
2 72 94 0 9
0 0 0
0 1 0
0 2 1
1 0 0
1 1 3
1 2 2
2 0 3
2 1 0
2 2 2
2 7 68 0 9
0 0 1
0 1 3
0 2 0
1 0 2
1 1 0
1 2 1
2 0 0
2 1 1
2 2 0
2 45 54 0 9
0 0 0
0 1 0
0 2 0
1 0 3
1 1 2
1 2 3
2 0 2
2 1 1
2 2 0
2 62 82 0 9
0 0 0
0 1 0
0 2 0
1 0 3
1 1 0
1 2 1
2 0 3
2 1 1
2 2 3
2 26 72 0 9
0 0 2
0 1 3
0 2 3
1 0 0
1 1 2
1 2 0
2 0 0
2 1 2
2 2 0
2 47 87 0 9
0 0 0
0 1 2
0 2 1
1 0 0
1 1 2
1 2 2
2 0 3
2 1 0
2 2 0
2 34 94 0 9
0 0 0
0 1 0
0 2 0
1 0 2
1 1 1
1 2 0
2 0 3
2 1 3
2 2 1
2 77 86 0 9
0 0 0
0 1 0
0 2 1
1 0 2
1 1 0
1 2 3
2 0 1
2 1 0
2 2 3
2 36 54 0 9
0 0 0
0 1 0
0 2 3
1 0 0
1 1 3
1 2 2
2 0 3
2 1 0
2 2 3
2 0 20 0 9
0 0 3
0 1 3
0 2 0
1 0 0
1 1 3
1 2 0
2 0 0
2 1 1
2 2 3
2 85 88 0 9
0 0 1
0 1 0
0 2 2
1 0 0
1 1 0
1 2 1
2 0 3
2 1 0
2 2 3
2 27 45 0 9
0 0 0
0 1 2
0 2 3
1 0 0
1 1 0
1 2 2
2 0 1
2 1 3
2 2 0
2 15 27 0 9
0 0 3
0 1 3
0 2 0
1 0 3
1 1 0
1 2 0
2 0 2
2 1 0
2 2 1
2 17 54 0 9
0 0 0
0 1 1
0 2 0
1 0 0
1 1 0
1 2 3
2 0 1
2 1 1
2 2 3
2 43 56 0 9
0 0 1
0 1 0
0 2 2
1 0 1
1 1 0
1 2 2
2 0 1
2 1 0
2 2 0
2 24 71 0 9
0 0 0
0 1 3
0 2 3
1 0 0
1 1 2
1 2 1
2 0 0
2 1 2
2 2 0
2 24 94 0 9
0 0 0
0 1 2
0 2 3
1 0 2
1 1 3
1 2 1
2 0 0
2 1 0
2 2 0
2 2 34 0 9
0 0 0
0 1 3
0 2 0
1 0 0
1 1 1
1 2 3
2 0 1
2 1 0
2 2 1
2 68 83 0 9
0 0 2
0 1 0
0 2 0
1 0 3
1 1 3
1 2 2
2 0 0
2 1 2
2 2 0
2 26 85 0 9
0 0 0
0 1 3
0 2 0
1 0 1
1 1 0
1 2 2
2 0 1
2 1 3
2 2 0
2 65 80 0 9
0 0 1
0 1 2
0 2 0
1 0 1
1 1 0
1 2 0
2 0 1
2 1 2
2 2 0
2 25 81 0 9
0 0 2
0 1 0
0 2 1
1 0 2
1 1 0
1 2 0
2 0 0
2 1 2
2 2 1
2 58 81 0 9
0 0 1
0 1 3
0 2 0
1 0 0
1 1 2
1 2 0
2 0 2
2 1 2
2 2 0
2 62 66 0 9
0 0 1
0 1 0
0 2 0
1 0 1
1 1 3
1 2 0
2 0 0
2 1 3
2 2 3
2 5 15 0 9
0 0 2
0 1 3
0 2 0
1 0 2
1 1 1
1 2 0
2 0 1
2 1 0
2 2 0
2 0 97 0 9
0 0 1
0 1 3
0 2 3
1 0 0
1 1 3
1 2 3
2 0 0
2 1 0
2 2 0
2 3 44 0 9
0 0 0
0 1 2
0 2 2
1 0 0
1 1 0
1 2 0
2 0 1
2 1 3
2 2 3
2 5 91 0 9
0 0 0
0 1 2
0 2 0
1 0 3
1 1 2
1 2 1
2 0 0
2 1 0
2 2 2
2 26 92 0 9
0 0 0
0 1 3
0 2 0
1 0 0
1 1 0
1 2 3
2 0 1
2 1 1
2 2 3
2 71 74 0 9
0 0 0
0 1 1
0 2 3
1 0 1
1 1 0
1 2 2
2 0 0
2 1 0
2 2 1
2 8 49 0 9
0 0 0
0 1 1
0 2 0
1 0 0
1 1 3
1 2 3
2 0 1
2 1 0
2 2 2
2 5 92 0 9
0 0 0
0 1 1
0 2 2
1 0 1
1 1 3
1 2 0
2 0 3
2 1 0
2 2 0
2 17 65 0 9
0 0 0
0 1 2
0 2 3
1 0 1
1 1 0
1 2 2
2 0 0
2 1 1
2 2 0
2 80 91 0 9
0 0 0
0 1 1
0 2 3
1 0 0
1 1 0
1 2 1
2 0 0
2 1 1
2 2 3
2 10 81 0 9
0 0 0
0 1 0
0 2 1
1 0 3
1 1 2
1 2 0
2 0 2
2 1 0
2 2 3
2 22 32 0 9
0 0 2
0 1 3
0 2 0
1 0 2
1 1 2
1 2 2
2 0 0
2 1 0
2 2 0
2 0 48 0 9
0 0 2
0 1 0
0 2 2
1 0 0
1 1 3
1 2 0
2 0 0
2 1 3
2 2 3
2 3 12 0 9
0 0 1
0 1 1
0 2 0
1 0 3
1 1 2
1 2 0
2 0 2
2 1 0
2 2 0
2 3 37 0 9
0 0 3
0 1 2
0 2 0
1 0 1
1 1 0
1 2 3
2 0 0
2 1 3
2 2 0
2 29 39 0 9
0 0 0
0 1 0
0 2 1
1 0 1
1 1 0
1 2 2
2 0 1
2 1 0
2 2 2
2 27 28 0 9
0 0 2
0 1 0
0 2 2
1 0 0
1 1 0
1 2 3
2 0 3
2 1 0
2 2 2
2 8 74 0 9
0 0 3
0 1 1
0 2 3
1 0 0
1 1 3
1 2 0
2 0 3
2 1 0
2 2 0
2 23 33 0 9
0 0 3
0 1 0
0 2 2
1 0 0
1 1 0
1 2 3
2 0 1
2 1 0
2 2 3
2 46 71 0 9
0 0 0
0 1 0
0 2 2
1 0 3
1 1 3
1 2 0
2 0 3
2 1 0
2 2 2
2 60 99 0 9
0 0 2
0 1 0
0 2 2
1 0 0
1 1 2
1 2 2
2 0 0
2 1 3
2 2 0
2 27 64 0 9
0 0 2
0 1 0
0 2 2
1 0 2
1 1 0
1 2 2
2 0 1
2 1 0
2 2 0
2 22 88 0 9
0 0 0
0 1 0
0 2 2
1 0 1
1 1 0
1 2 1
2 0 1
2 1 1
2 2 0
2 0 14 0 9
0 0 3
0 1 2
0 2 2
1 0 0
1 1 0
1 2 3
2 0 0
2 1 0
2 2 1
2 58 70 0 9
0 0 0
0 1 2
0 2 2
1 0 1
1 1 0
1 2 2
2 0 0
2 1 1
2 2 0
2 16 39 0 9
0 0 3
0 1 0
0 2 1
1 0 0
1 1 0
1 2 0
2 0 2
2 1 3
2 2 3
2 81 92 0 9
0 0 2
0 1 0
0 2 0
1 0 0
1 1 3
1 2 1
2 0 1
2 1 0
2 2 3
2 31 36 0 9
0 0 2
0 1 0
0 2 1
1 0 0
1 1 2
1 2 0
2 0 0
2 1 2
2 2 2
2 1 26 0 9
0 0 3
0 1 0
0 2 1
1 0 3
1 1 3
1 2 1
2 0 0
2 1 0
2 2 0
2 34 82 0 9
0 0 1
0 1 3
0 2 0
1 0 1
1 1 0
1 2 2
2 0 0
2 1 0
2 2 3
2 2 69 0 9
0 0 2
0 1 0
0 2 2
1 0 0
1 1 2
1 2 2
2 0 0
2 1 3
2 2 0
2 29 59 0 9
0 0 1
0 1 0
0 2 0
1 0 1
1 1 3
1 2 2
2 0 0
2 1 0
2 2 2
2 0 42 0 9
0 0 0
0 1 2
0 2 0
1 0 0
1 1 2
1 2 0
2 0 3
2 1 2
2 2 1
2 19 51 0 9
0 0 3
0 1 0
0 2 3
1 0 3
1 1 0
1 2 1
2 0 0
2 1 0
2 2 3
2 40 71 0 9
0 0 0
0 1 2
0 2 1
1 0 0
1 1 0
1 2 0
2 0 1
2 1 3
2 2 3
2 19 95 0 9
0 0 0
0 1 0
0 2 0
1 0 2
1 1 0
1 2 2
2 0 1
2 1 1
2 2 3
2 30 74 0 9
0 0 0
0 1 1
0 2 0
1 0 0
1 1 3
1 2 0
2 0 1
2 1 2
2 2 2
2 23 46 0 9
0 0 2
0 1 1
0 2 2
1 0 0
1 1 0
1 2 0
2 0 0
2 1 3
2 2 3
2 43 87 0 9
0 0 2
0 1 0
0 2 0
1 0 1
1 1 1
1 2 3
2 0 0
2 1 2
2 2 0
2 16 41 0 9
0 0 1
0 1 0
0 2 2
1 0 0
1 1 0
1 2 1
2 0 2
2 1 0
2 2 3
2 1 30 0 9
0 0 1
0 1 0
0 2 2
1 0 3
1 1 3
1 2 0
2 0 0
2 1 2
2 2 0
2 18 90 0 9
0 0 0
0 1 1
0 2 3
1 0 0
1 1 0
1 2 0
2 0 1
2 1 1
2 2 2
2 53 89 0 9
0 0 2
0 1 0
0 2 0
1 0 2
1 1 0
1 2 3
2 0 3
2 1 2
2 2 0
2 11 36 0 9
0 0 0
0 1 1
0 2 0
1 0 0
1 1 2
1 2 1
2 0 0
2 1 1
2 2 1
2 2 84 0 9
0 0 3
0 1 1
0 2 0
1 0 2
1 1 0
1 2 2
2 0 0
2 1 1
2 2 0
2 54 58 0 9
0 0 1
0 1 0
0 2 2
1 0 1
1 1 0
1 2 3
2 0 2
2 1 0
2 2 0
2 49 64 0 9
0 0 0
0 1 2
0 2 1
1 0 3
1 1 0
1 2 0
2 0 1
2 1 2
2 2 0
2 83 97 0 9
0 0 0
0 1 0
0 2 0
1 0 3
1 1 2
1 2 1
2 0 2
2 1 0
2 2 2
2 40 73 0 9
0 0 0
0 1 3
0 2 2
1 0 0
1 1 0
1 2 3
2 0 1
2 1 3
2 2 0
2 35 38 0 9
0 0 0
0 1 2
0 2 1
1 0 3
1 1 3
1 2 0
2 0 0
2 1 0
2 2 3
2 37 44 0 9
0 0 2
0 1 2
0 2 2
1 0 2
1 1 0
1 2 0
2 0 0
2 1 0
2 2 1
2 43 64 0 9
0 0 0
0 1 2
0 2 2
1 0 1
1 1 2
1 2 0
2 0 2
2 1 0
2 2 0
2 49 90 0 9
0 0 0
0 1 1
0 2 0
1 0 0
1 1 2
1 2 2
2 0 3
2 1 3
2 2 0
2 60 81 0 9
0 0 0
0 1 3
0 2 2
1 0 0
1 1 0
1 2 3
2 0 0
2 1 3
2 2 3
2 85 98 0 9
0 0 2
0 1 2
0 2 0
1 0 3
1 1 3
1 2 0
2 0 0
2 1 1
2 2 0
2 16 79 0 9
0 0 3
0 1 0
0 2 2
1 0 0
1 1 1
1 2 1
2 0 0
2 1 0
2 2 1
2 27 75 0 9
0 0 0
0 1 3
0 2 1
1 0 1
1 1 1
1 2 0
2 0 1
2 1 0
2 2 0
2 24 26 0 9
0 0 0
0 1 0
0 2 1
1 0 2
1 1 3
1 2 0
2 0 0
2 1 2
2 2 3
2 76 81 0 9
0 0 3
0 1 1
0 2 2
1 0 0
1 1 0
1 2 1
2 0 0
2 1 2
2 2 0
2 12 93 0 9
0 0 1
0 1 0
0 2 0
1 0 2
1 1 1
1 2 2
2 0 3
2 1 0
2 2 0
2 55 98 0 9
0 0 3
0 1 3
0 2 3
1 0 0
1 1 0
1 2 0
2 0 3
2 1 3
2 2 0
2 38 45 0 9
0 0 0
0 1 3
0 2 3
1 0 3
1 1 0
1 2 0
2 0 3
2 1 3
2 2 0
2 57 97 0 9
0 0 2
0 1 0
0 2 2
1 0 1
1 1 1
1 2 0
2 0 0
2 1 2
2 2 0
2 46 69 0 9
0 0 3
0 1 0
0 2 0
1 0 3
1 1 0
1 2 1
2 0 3
2 1 1
2 2 0
2 32 91 0 9
0 0 0
0 1 0
0 2 0
1 0 1
1 1 3
1 2 1
2 0 2
2 1 2
2 2 0
2 26 68 0 9
0 0 1
0 1 2
0 2 2
1 0 0
1 1 1
1 2 3
2 0 0
2 1 0
2 2 0
2 34 91 0 9
0 0 0
0 1 0
0 2 2
1 0 0
1 1 1
1 2 0
2 0 2
2 1 2
2 2 3
2 68 89 0 9
0 0 2
0 1 0
0 2 2
1 0 1
1 1 0
1 2 3
2 0 0
2 1 3
2 2 0
2 26 66 0 9
0 0 1
0 1 2
0 2 0
1 0 2
1 1 3
1 2 0
2 0 0
2 1 0
2 2 1
2 12 50 0 9
0 0 1
0 1 2
0 2 2
1 0 0
1 1 1
1 2 0
2 0 0
2 1 0
2 2 2
2 26 74 0 9
0 0 1
0 1 0
0 2 3
1 0 2
1 1 2
1 2 0
2 0 2
2 1 0
2 2 0
2 55 87 0 9
0 0 1
0 1 0
0 2 1
1 0 0
1 1 2
1 2 3
2 0 0
2 1 0
2 2 1
2 41 62 0 9
0 0 0
0 1 0
0 2 2
1 0 1
1 1 3
1 2 0
2 0 2
2 1 1
2 2 0
2 32 79 0 9
0 0 2
0 1 3
0 2 0
1 0 0
1 1 3
1 2 3
2 0 0
2 1 0
2 2 1
2 12 53 0 9
0 0 0
0 1 3
0 2 0
1 0 1
1 1 0
1 2 3
2 0 0
2 1 2
2 2 1
2 86 89 0 9
0 0 0
0 1 3
0 2 0
1 0 2
1 1 2
1 2 0
2 0 2
2 1 0
2 2 1
2 35 57 0 9
0 0 2
0 1 0
0 2 2
1 0 0
1 1 0
1 2 2
2 0 1
2 1 3
2 2 0
2 17 74 0 9
0 0 3
0 1 0
0 2 2
1 0 2
1 1 2
1 2 0
2 0 0
2 1 2
2 2 0
2 87 97 0 9
0 0 0
0 1 3
0 2 0
1 0 0
1 1 2
1 2 0
2 0 1
2 1 2
2 2 2
2 47 99 0 9
0 0 0
0 1 0
0 2 0
1 0 2
1 1 3
1 2 1
2 0 2
2 1 0
2 2 1
2 23 58 0 9
0 0 0
0 1 2
0 2 3
1 0 2
1 1 3
1 2 0
2 0 1
2 1 0
2 2 0
2 4 49 0 9
0 0 0
0 1 0
0 2 2
1 0 3
1 1 1
1 2 2
2 0 1
2 1 0
2 2 0
2 49 86 0 9
0 0 1
0 1 0
0 2 0
1 0 2
1 1 2
1 2 1
2 0 3
2 1 0
2 2 0
2 30 79 0 9
0 0 2
0 1 1
0 2 1
1 0 2
1 1 0
1 2 0
2 0 0
2 1 1
2 2 0
2 15 36 0 9
0 0 0
0 1 0
0 2 2
1 0 3
1 1 1
1 2 0
2 0 3
2 1 3
2 2 0
2 74 86 0 9
0 0 0
0 1 2
0 2 0
1 0 2
1 1 0
1 2 3
2 0 2
2 1 0
2 2 1
2 14 34 0 9
0 0 0
0 1 0
0 2 3
1 0 2
1 1 1
1 2 0
2 0 0
2 1 1
2 2 3
2 32 46 0 9
0 0 2
0 1 0
0 2 0
1 0 3
1 1 2
1 2 0
2 0 3
2 1 3
2 2 0
2 42 90 0 9
0 0 3
0 1 2
0 2 0
1 0 1
1 1 1
1 2 0
2 0 0
2 1 0
2 2 1
2 24 64 0 9
0 0 2
0 1 0
0 2 2
1 0 1
1 1 3
1 2 0
2 0 0
2 1 0
2 2 3
2 18 87 0 9
0 0 0
0 1 0
0 2 2
1 0 2
1 1 0
1 2 0
2 0 2
2 1 1
2 2 1
2 1 78 0 9
0 0 0
0 1 1
0 2 2
1 0 2
1 1 2
1 2 0
2 0 0
2 1 0
2 2 1
2 0 32 0 9
0 0 0
0 1 1
0 2 2
1 0 0
1 1 3
1 2 0
2 0 0
2 1 2
2 2 3
2 13 39 0 9
0 0 2
0 1 3
0 2 3
1 0 0
1 1 3
1 2 0
2 0 0
2 1 0
2 2 1
2 74 80 0 9
0 0 2
0 1 0
0 2 0
1 0 2
1 1 1
1 2 0
2 0 1
2 1 1
2 2 0
2 0 18 0 9
0 0 2
0 1 0
0 2 0
1 0 2
1 1 2
1 2 0
2 0 3
2 1 0
2 2 2
2 57 84 0 9
0 0 0
0 1 0
0 2 2
1 0 1
1 1 0
1 2 0
2 0 3
2 1 3
2 2 1
2 58 61 0 9
0 0 2
0 1 0
0 2 1
1 0 3
1 1 2
1 2 0
2 0 3
2 1 0
2 2 0
2 8 19 0 9
0 0 3
0 1 2
0 2 2
1 0 0
1 1 2
1 2 0
2 0 0
2 1 2
2 2 0
2 48 88 0 9
0 0 2
0 1 2
0 2 1
1 0 0
1 1 0
1 2 2
2 0 0
2 1 0
2 2 2
2 25 79 0 9
0 0 0
0 1 2
0 2 3
1 0 3
1 1 2
1 2 0
2 0 0
2 1 0
2 2 2
2 80 89 0 9
0 0 1
0 1 3
0 2 2
1 0 0
1 1 0
1 2 3
2 0 0
2 1 3
2 2 0
2 18 80 0 9
0 0 0
0 1 3
0 2 0
1 0 2
1 1 0
1 2 2
2 0 3
2 1 0
2 2 3
2 15 73 0 9
0 0 2
0 1 3
0 2 0
1 0 0
1 1 3
1 2 2
2 0 3
2 1 0
2 2 0
2 5 64 0 9
0 0 3
0 1 3
0 2 3
1 0 0
1 1 0
1 2 0
2 0 1
2 1 3
2 2 0
2 21 44 0 9
0 0 0
0 1 0
0 2 2
1 0 2
1 1 0
1 2 1
2 0 1
2 1 0
2 2 3
2 15 51 0 9
0 0 3
0 1 3
0 2 0
1 0 0
1 1 0
1 2 2
2 0 0
2 1 3
2 2 3
2 70 99 0 9
0 0 2
0 1 1
0 2 0
1 0 3
1 1 0
1 2 0
2 0 0
2 1 2
2 2 1
2 21 37 0 9
0 0 0
0 1 0
0 2 0
1 0 3
1 1 0
1 2 2
2 0 3
2 1 3
2 2 2
2 47 65 0 9
0 0 2
0 1 1
0 2 1
1 0 0
1 1 0
1 2 2
2 0 0
2 1 3
2 2 0
2 57 76 0 9
0 0 0
0 1 1
0 2 2
1 0 1
1 1 3
1 2 0
2 0 1
2 1 0
2 2 0
2 70 80 0 9
0 0 0
0 1 2
0 2 0
1 0 0
1 1 2
1 2 1
2 0 0
2 1 2
2 2 2
2 22 73 0 9
0 0 0
0 1 1
0 2 1
1 0 3
1 1 0
1 2 0
2 0 0
2 1 3
2 2 1
2 31 52 0 9
0 0 1
0 1 3
0 2 1
1 0 0
1 1 0
1 2 3
2 0 0
2 1 2
2 2 0
2 19 27 0 9
0 0 3
0 1 0
0 2 0
1 0 0
1 1 2
1 2 1
2 0 0
2 1 3
2 2 1
2 17 89 0 9
0 0 0
0 1 0
0 2 1
1 0 0
1 1 1
1 2 2
2 0 3
2 1 0
2 2 2
2 6 35 0 9
0 0 2
0 1 0
0 2 3
1 0 1
1 1 2
1 2 2
2 0 0
2 1 0
2 2 0
2 24 40 0 9
0 0 0
0 1 0
0 2 0
1 0 2
1 1 2
1 2 0
2 0 3
2 1 3
2 2 1
2 34 99 0 9
0 0 2
0 1 3
0 2 0
1 0 0
1 1 3
1 2 0
2 0 2
2 1 3
2 2 0
2 64 72 0 9
0 0 1
0 1 0
0 2 3
1 0 1
1 1 0
1 2 0
2 0 1
2 1 0
2 2 1
2 50 56 0 9
0 0 2
0 1 1
0 2 0
1 0 0
1 1 1
1 2 1
2 0 0
2 1 2
2 2 0
2 50 60 0 9
0 0 0
0 1 1
0 2 1
1 0 0
1 1 0
1 2 3
2 0 2
2 1 2
2 2 0
2 12 15 0 9
0 0 1
0 1 0
0 2 3
1 0 1
1 1 0
1 2 1
2 0 0
2 1 3
2 2 0
2 66 76 0 9
0 0 1
0 1 0
0 2 0
1 0 3
1 1 1
1 2 0
2 0 1
2 1 0
2 2 2
2 58 69 0 9
0 0 0
0 1 1
0 2 0
1 0 1
1 1 2
1 2 1
2 0 0
2 1 0
2 2 1
2 38 39 0 9
0 0 3
0 1 0
0 2 0
1 0 2
1 1 0
1 2 1
2 0 0
2 1 1
2 2 1
2 60 83 0 9
0 0 2
0 1 0
0 2 1
1 0 3
1 1 0
1 2 0
2 0 2
2 1 0
2 2 3
2 26 57 0 9
0 0 0
0 1 2
0 2 0
1 0 3
1 1 3
1 2 2
2 0 3
2 1 0
2 2 0
2 24 82 0 9
0 0 0
0 1 3
0 2 1
1 0 0
1 1 3
1 2 0
2 0 3
2 1 0
2 2 2
2 13 14 0 9
0 0 0
0 1 1
0 2 3
1 0 0
1 1 0
1 2 1
2 0 1
2 1 2
2 2 0
2 60 85 0 9
0 0 3
0 1 0
0 2 3
1 0 1
1 1 0
1 2 3
2 0 0
2 1 3
2 2 0
2 12 98 0 9
0 0 3
0 1 0
0 2 3
1 0 1
1 1 2
1 2 0
2 0 2
2 1 0
2 2 0
2 52 95 0 9
0 0 1
0 1 3
0 2 1
1 0 2
1 1 2
1 2 0
2 0 0
2 1 0
2 2 0
2 28 29 0 9
0 0 3
0 1 0
0 2 1
1 0 1
1 1 0
1 2 0
2 0 3
2 1 1
2 2 0
2 49 83 0 9
0 0 0
0 1 2
0 2 1
1 0 0
1 1 3
1 2 1
2 0 0
2 1 0
2 2 3
2 32 62 0 9
0 0 0
0 1 1
0 2 0
1 0 0
1 1 3
1 2 2
2 0 0
2 1 1
2 2 3
2 40 47 0 9
0 0 2
0 1 0
0 2 0
1 0 3
1 1 1
1 2 3
2 0 0
2 1 0
2 2 2
2 37 90 0 9
0 0 2
0 1 0
0 2 1
1 0 1
1 1 0
1 2 2
2 0 0
2 1 2
2 2 0
2 13 24 0 9
0 0 3
0 1 3
0 2 2
1 0 0
1 1 1
1 2 0
2 0 3
2 1 0
2 2 0
2 14 22 0 9
0 0 0
0 1 3
0 2 0
1 0 3
1 1 0
1 2 0
2 0 1
2 1 3
2 2 3
2 25 28 0 9
0 0 0
0 1 3
0 2 0
1 0 0
1 1 3
1 2 0
2 0 2
2 1 1
2 2 1
2 14 59 0 9
0 0 0
0 1 0
0 2 3
1 0 3
1 1 0
1 2 2
2 0 0
2 1 2
2 2 1
2 86 96 0 9
0 0 2
0 1 3
0 2 3
1 0 2
1 1 0
1 2 0
2 0 3
2 1 0
2 2 0
2 4 26 0 9
0 0 2
0 1 0
0 2 0
1 0 1
1 1 2
1 2 3
2 0 3
2 1 0
2 2 0
2 6 16 0 9
0 0 0
0 1 0
0 2 3
1 0 2
1 1 0
1 2 0
2 0 1
2 1 2
2 2 3
2 0 41 0 9
0 0 2
0 1 3
0 2 2
1 0 1
1 1 0
1 2 0
2 0 0
2 1 3
2 2 0
2 19 83 0 9
0 0 1
0 1 0
0 2 3
1 0 1
1 1 0
1 2 2
2 0 2
2 1 0
2 2 0
2 4 21 0 9
0 0 0
0 1 1
0 2 0
1 0 0
1 1 2
1 2 0
2 0 3
2 1 2
2 2 1
2 15 42 0 9
0 0 2
0 1 2
0 2 3
1 0 1
1 1 0
1 2 1
2 0 0
2 1 0
2 2 0
2 34 83 0 9
0 0 0
0 1 0
0 2 2
1 0 3
1 1 0
1 2 3
2 0 0
2 1 2
2 2 3
2 21 82 0 9
0 0 0
0 1 1
0 2 2
1 0 2
1 1 0
1 2 3
2 0 3
2 1 0
2 2 0
2 7 59 0 9
0 0 0
0 1 1
0 2 1
1 0 0
1 1 0
1 2 1
2 0 3
2 1 0
2 2 3
2 42 53 0 9
0 0 0
0 1 1
0 2 2
1 0 0
1 1 2
1 2 3
2 0 0
2 1 0
2 2 3
2 33 34 0 9
0 0 3
0 1 2
0 2 0
1 0 1
1 1 0
1 2 1
2 0 0
2 1 2
2 2 0
2 8 78 0 9
0 0 0
0 1 0
0 2 3
1 0 0
1 1 3
1 2 3
2 0 1
2 1 2
2 2 0
2 11 87 0 9
0 0 0
0 1 0
0 2 3
1 0 0
1 1 2
1 2 1
2 0 3
2 1 0
2 2 2
2 36 80 0 9
0 0 0
0 1 0
0 2 3
1 0 3
1 1 0
1 2 1
2 0 1
2 1 0
2 2 3
2 10 64 0 9
0 0 3
0 1 0
0 2 0
1 0 0
1 1 1
1 2 3
2 0 3
2 1 1
2 2 0
2 8 82 0 9
0 0 0
0 1 3
0 2 0
1 0 1
1 1 0
1 2 3
2 0 2
2 1 0
2 2 3
2 12 27 0 9
0 0 3
0 1 3
0 2 2
1 0 3
1 1 0
1 2 1
2 0 0
2 1 0
2 2 0
2 17 73 0 9
0 0 3
0 1 2
0 2 0
1 0 0
1 1 0
1 2 0
2 0 3
2 1 1
2 2 2
2 41 44 0 9
0 0 0
0 1 1
0 2 0
1 0 1
1 1 1
1 2 2
2 0 2
2 1 0
2 2 0
2 6 86 0 9
0 0 3
0 1 0
0 2 3
1 0 0
1 1 3
1 2 0
2 0 3
2 1 3
2 2 0
2 59 65 0 9
0 0 0
0 1 0
0 2 1
1 0 2
1 1 1
1 2 0
2 0 2
2 1 1
2 2 0
2 43 99 0 9
0 0 0
0 1 0
0 2 3
1 0 2
1 1 0
1 2 2
2 0 0
2 1 1
2 2 2
2 32 63 0 9
0 0 2
0 1 2
0 2 3
1 0 0
1 1 0
1 2 0
2 0 0
2 1 3
2 2 1
2 37 57 0 9
0 0 0
0 1 1
0 2 2
1 0 0
1 1 0
1 2 1
2 0 0
2 1 3
2 2 1
2 32 77 0 9
0 0 0
0 1 0
0 2 0
1 0 2
1 1 3
1 2 2
2 0 0
2 1 2
2 2 3
2 18 62 0 9
0 0 2
0 1 0
0 2 2
1 0 0
1 1 0
1 2 0
2 0 2
2 1 3
2 2 3
2 4 91 0 9
0 0 2
0 1 0
0 2 0
1 0 3
1 1 1
1 2 0
2 0 1
2 1 0
2 2 1
2 70 96 0 9
0 0 0
0 1 2
0 2 0
1 0 0
1 1 1
1 2 3
2 0 3
2 1 0
2 2 2
2 40 65 0 9
0 0 0
0 1 1
0 2 3
1 0 0
1 1 3
1 2 0
2 0 1
2 1 0
2 2 1
2 31 35 0 9
0 0 3
0 1 0
0 2 0
1 0 3
1 1 3
1 2 0
2 0 3
2 1 3
2 2 0
2 25 97 0 9
0 0 1
0 1 3
0 2 0
1 0 0
1 1 1
1 2 0
2 0 3
2 1 2
2 2 0
2 31 37 0 9
0 0 0
0 1 1
0 2 0
1 0 0
1 1 0
1 2 1
2 0 3
2 1 3
2 2 1
2 33 83 0 9
0 0 0
0 1 2
0 2 2
1 0 0
1 1 3
1 2 3
2 0 1
2 1 0
2 2 0
2 9 94 0 9
0 0 1
0 1 0
0 2 3
1 0 0
1 1 1
1 2 0
2 0 1
2 1 0
2 2 1
2 89 99 0 9
0 0 0
0 1 3
0 2 3
1 0 1
1 1 0
1 2 0
2 0 2
2 1 3
2 2 0
2 72 96 0 9
0 0 2
0 1 2
0 2 0
1 0 0
1 1 1
1 2 3
2 0 0
2 1 0
2 2 2
2 31 68 0 9
0 0 1
0 1 1
0 2 0
1 0 2
1 1 0
1 2 0
2 0 2
2 1 0
2 2 3
2 34 77 0 9
0 0 1
0 1 0
0 2 0
1 0 0
1 1 2
1 2 2
2 0 2
2 1 0
2 2 1
2 41 63 0 9
0 0 2
0 1 3
0 2 1
1 0 3
1 1 0
1 2 0
2 0 2
2 1 0
2 2 0
2 69 70 0 9
0 0 0
0 1 2
0 2 2
1 0 2
1 1 0
1 2 2
2 0 0
2 1 3
2 2 0
2 17 92 0 9
0 0 0
0 1 0
0 2 2
1 0 0
1 1 3
1 2 0
2 0 3
2 1 1
2 2 2
2 26 81 0 9
0 0 1
0 1 0
0 2 2
1 0 2
1 1 0
1 2 3
2 0 0
2 1 2
2 2 0
2 16 57 0 9
0 0 0
0 1 0
0 2 0
1 0 1
1 1 1
1 2 3
2 0 3
2 1 1
2 2 0
2 60 82 0 9
0 0 2
0 1 0
0 2 3
1 0 1
1 1 0
1 2 0
2 0 2
2 1 2
2 2 0
2 3 96 0 9
0 0 0
0 1 0
0 2 2
1 0 1
1 1 1
1 2 3
2 0 2
2 1 0
2 2 0
2 11 84 0 9
0 0 1
0 1 0
0 2 1
1 0 0
1 1 0
1 2 0
2 0 3
2 1 1
2 2 1
2 29 61 0 9
0 0 0
0 1 0
0 2 3
1 0 3
1 1 1
1 2 0
2 0 0
2 1 1
2 2 2
2 40 92 0 9
0 0 2
0 1 2
0 2 1
1 0 0
1 1 0
1 2 0
2 0 1
2 1 2
2 2 0
2 92 94 0 9
0 0 2
0 1 1
0 2 3
1 0 0
1 1 2
1 2 0
2 0 0
2 1 1
2 2 0
2 21 62 0 9
0 0 1
0 1 0
0 2 0
1 0 3
1 1 3
1 2 0
2 0 1
2 1 3
2 2 0
2 4 71 0 9
0 0 0
0 1 2
0 2 0
1 0 2
1 1 1
1 2 3
2 0 1
2 1 0
2 2 0
2 36 63 0 9
0 0 2
0 1 3
0 2 0
1 0 0
1 1 3
1 2 1
2 0 3
2 1 0
2 2 0
2 4 62 0 9
0 0 0
0 1 1
0 2 3
1 0 0
1 1 3
1 2 0
2 0 0
2 1 3
2 2 3
2 14 43 0 9
0 0 0
0 1 0
0 2 0
1 0 1
1 1 0
1 2 2
2 0 1
2 1 3
2 2 1
2 21 85 0 9
0 0 2
0 1 0
0 2 1
1 0 0
1 1 3
1 2 2
2 0 0
2 1 3
2 2 0
2 4 61 0 9
0 0 1
0 1 0
0 2 0
1 0 3
1 1 2
1 2 0
2 0 1
2 1 3
2 2 0
2 11 66 0 9
0 0 2
0 1 0
0 2 0
1 0 2
1 1 1
1 2 3
2 0 2
2 1 0
2 2 0
2 41 89 0 9
0 0 1
0 1 0
0 2 1
1 0 0
1 1 0
1 2 3
2 0 0
2 1 1
2 2 3
2 62 80 0 9
0 0 0
0 1 0
0 2 3
1 0 0
1 1 2
1 2 0
2 0 3
2 1 3
2 2 3
2 78 99 0 9
0 0 0
0 1 2
0 2 2
1 0 0
1 1 1
1 2 3
2 0 3
2 1 0
2 2 0
2 25 73 0 9
0 0 1
0 1 0
0 2 1
1 0 3
1 1 3
1 2 3
2 0 0
2 1 0
2 2 0
2 23 77 0 9
0 0 2
0 1 1
0 2 2
1 0 2
1 1 0
1 2 0
2 0 3
2 1 0
2 2 0
2 60 77 0 9
0 0 3
0 1 1
0 2 0
1 0 0
1 1 3
1 2 3
2 0 0
2 1 0
2 2 1
2 10 96 0 9
0 0 3
0 1 0
0 2 2
1 0 2
1 1 1
1 2 1
2 0 0
2 1 0
2 2 0
2 14 48 0 9
0 0 2
0 1 1
0 2 0
1 0 0
1 1 3
1 2 0
2 0 0
2 1 2
2 2 3
2 24 38 0 9
0 0 0
0 1 3
0 2 3
1 0 0
1 1 1
1 2 0
2 0 2
2 1 0
2 2 2
2 66 90 0 9
0 0 2
0 1 0
0 2 1
1 0 2
1 1 3
1 2 0
2 0 0
2 1 0
2 2 2
2 4 96 0 9
0 0 0
0 1 2
0 2 0
1 0 0
1 1 2
1 2 0
2 0 1
2 1 3
2 2 3
2 22 64 0 9
0 0 3
0 1 0
0 2 3
1 0 1
1 1 0
1 2 1
2 0 0
2 1 1
2 2 0
2 30 65 0 9
0 0 0
0 1 3
0 2 0
1 0 2
1 1 0
1 2 0
2 0 1
2 1 3
2 2 1
2 9 72 0 9
0 0 2
0 1 2
0 2 2
1 0 0
1 1 2
1 2 3
2 0 0
2 1 0
2 2 0
2 62 65 0 9
0 0 0
0 1 0
0 2 1
1 0 0
1 1 3
1 2 1
2 0 3
2 1 1
2 2 0
2 62 72 0 9
0 0 1
0 1 0
0 2 3
1 0 1
1 1 0
1 2 0
2 0 3
2 1 0
2 2 2
2 72 77 0 9
0 0 3
0 1 0
0 2 0
1 0 1
1 1 2
1 2 1
2 0 0
2 1 2
2 2 0
2 57 65 0 9
0 0 2
0 1 1
0 2 0
1 0 2
1 1 0
1 2 0
2 0 0
2 1 1
2 2 1
2 63 86 0 9
0 0 0
0 1 0
0 2 1
1 0 1
1 1 0
1 2 2
2 0 2
2 1 0
2 2 3
2 32 64 0 9
0 0 2
0 1 0
0 2 0
1 0 0
1 1 3
1 2 2
2 0 0
2 1 1
2 2 2
2 69 98 0 9
0 0 2
0 1 0
0 2 3
1 0 0
1 1 3
1 2 0
2 0 0
2 1 2
2 2 2
2 32 80 0 9
0 0 0
0 1 1
0 2 0
1 0 0
1 1 0
1 2 2
2 0 1
2 1 2
2 2 1
2 15 47 0 9
0 0 0
0 1 3
0 2 3
1 0 1
1 1 0
1 2 2
2 0 1
2 1 0
2 2 0
2 23 92 0 9
0 0 1
0 1 3
0 2 1
1 0 0
1 1 1
1 2 0
2 0 1
2 1 0
2 2 0
2 1 41 0 9
0 0 2
0 1 2
0 2 0
1 0 2
1 1 0
1 2 1
2 0 0
2 1 0
2 2 1
2 59 77 0 9
0 0 2
0 1 3
0 2 0
1 0 3
1 1 0
1 2 0
2 0 1
2 1 0
2 2 1
2 10 11 0 9
0 0 0
0 1 3
0 2 2
1 0 0
1 1 3
1 2 1
2 0 2
2 1 0
2 2 0
2 59 97 0 9
0 0 1
0 1 0
0 2 0
1 0 0
1 1 1
1 2 3
2 0 0
2 1 3
2 2 3
2 49 81 0 9
0 0 0
0 1 1
0 2 3
1 0 2
1 1 1
1 2 1
2 0 0
2 1 0
2 2 0
2 47 54 0 9
0 0 0
0 1 3
0 2 2
1 0 1
1 1 0
1 2 0
2 0 2
2 1 2
2 2 0
2 31 69 0 9
0 0 0
0 1 2
0 2 1
1 0 1
1 1 3
1 2 0
2 0 3
2 1 0
2 2 0
2 24 45 0 9
0 0 1
0 1 0
0 2 0
1 0 2
1 1 0
1 2 3
2 0 3
2 1 0
2 2 2
2 14 45 0 9
0 0 0
0 1 1
0 2 0
1 0 3
1 1 1
1 2 0
2 0 3
2 1 0
2 2 1
2 9 36 0 9
0 0 0
0 1 3
0 2 1
1 0 2
1 1 0
1 2 0
2 0 2
2 1 0
2 2 1
2 32 65 0 9
0 0 2
0 1 3
0 2 2
1 0 0
1 1 0
1 2 0
2 0 3
2 1 2
2 2 0
2 43 60 0 9
0 0 0
0 1 2
0 2 0
1 0 2
1 1 3
1 2 0
2 0 0
2 1 2
2 2 1
2 56 62 0 9
0 0 1
0 1 1
0 2 0
1 0 0
1 1 2
1 2 1
2 0 0
2 1 1
2 2 0
2 1 81 0 9
0 0 0
0 1 1
0 2 2
1 0 3
1 1 0
1 2 0
2 0 2
2 1 2
2 2 0
2 30 93 0 9
0 0 3
0 1 3
0 2 3
1 0 0
1 1 0
1 2 0
2 0 3
2 1 0
2 2 2
2 19 60 0 9
0 0 0
0 1 2
0 2 0
1 0 3
1 1 0
1 2 3
2 0 1
2 1 0
2 2 1
2 45 92 0 9
0 0 0
0 1 3
0 2 2
1 0 2
1 1 3
1 2 1
2 0 0
2 1 0
2 2 0
2 20 66 0 9
0 0 3
0 1 0
0 2 2
1 0 3
1 1 0
1 2 2
2 0 0
2 1 0
2 2 3
2 66 89 0 9
0 0 3
0 1 2
0 2 0
1 0 0
1 1 2
1 2 0
2 0 0
2 1 3
2 2 2
2 36 92 0 9
0 0 1
0 1 0
0 2 3
1 0 3
1 1 0
1 2 2
2 0 3
2 1 0
2 2 0
2 30 84 0 9
0 0 0
0 1 0
0 2 0
1 0 2
1 1 0
1 2 3
2 0 2
2 1 2
2 2 3
2 3 48 0 9
0 0 1
0 1 0
0 2 1
1 0 3
1 1 0
1 2 0
2 0 2
2 1 0
2 2 2
2 49 80 0 9
0 0 3
0 1 0
0 2 3
1 0 2
1 1 0
1 2 0
2 0 0
2 1 3
2 2 1
2 3 94 0 9
0 0 1
0 1 0
0 2 2
1 0 2
1 1 0
1 2 1
2 0 1
2 1 0
2 2 0
2 62 64 0 9
0 0 1
0 1 0
0 2 1
1 0 0
1 1 3
1 2 3
2 0 1
2 1 0
2 2 0
2 26 32 0 9
0 0 3
0 1 2
0 2 0
1 0 0
1 1 0
1 2 1
2 0 0
2 1 1
2 2 1
2 3 74 0 9
0 0 3
0 1 0
0 2 0
1 0 0
1 1 0
1 2 3
2 0 3
2 1 3
2 2 1
2 12 71 0 9
0 0 0
0 1 0
0 2 3
1 0 2
1 1 1
1 2 0
2 0 3
2 1 2
2 2 0
2 46 98 0 9
0 0 3
0 1 0
0 2 2
1 0 1
1 1 3
1 2 3
2 0 0
2 1 0
2 2 0
2 21 74 0 9
0 0 3
0 1 0
0 2 1
1 0 2
1 1 2
1 2 0
2 0 0
2 1 1
2 2 0
2 35 66 0 9
0 0 0
0 1 2
0 2 1
1 0 2
1 1 0
1 2 3
2 0 0
2 1 2
2 2 0
2 31 88 0 9
0 0 3
0 1 0
0 2 2
1 0 1
1 1 1
1 2 1
2 0 0
2 1 0
2 2 0
2 56 61 0 9
0 0 1
0 1 0
0 2 0
1 0 2
1 1 3
1 2 0
2 0 1
2 1 1
2 2 0
2 10 15 0 9
0 0 1
0 1 2
0 2 0
1 0 0
1 1 1
1 2 0
2 0 3
2 1 0
2 2 2
2 73 77 0 9
0 0 0
0 1 1
0 2 1
1 0 0
1 1 0
1 2 3
2 0 0
2 1 2
2 2 1
2 15 57 0 9
0 0 3
0 1 0
0 2 1
1 0 2
1 1 2
1 2 1
2 0 0
2 1 0
2 2 0
2 91 95 0 9
0 0 0
0 1 3
0 2 2
1 0 1
1 1 0
1 2 0
2 0 1
2 1 1
2 2 0
2 27 59 0 9
0 0 2
0 1 2
0 2 0
1 0 0
1 1 2
1 2 2
2 0 0
2 1 1
2 2 0
2 17 30 0 9
0 0 0
0 1 0
0 2 0
1 0 3
1 1 2
1 2 1
2 0 0
2 1 2
2 2 1
2 8 72 0 9
0 0 0
0 1 0
0 2 3
1 0 0
1 1 3
1 2 0
2 0 1
2 1 1
2 2 3
2 74 84 0 9
0 0 0
0 1 2
0 2 0
1 0 1
1 1 3
1 2 3
2 0 2
2 1 0
2 2 0
2 81 86 0 9
0 0 2
0 1 0
0 2 2
1 0 0
1 1 0
1 2 1
2 0 0
2 1 1
2 2 1
2 9 90 0 9
0 0 0
0 1 2
0 2 2
1 0 0
1 1 1
1 2 0
2 0 0
2 1 1
2 2 1
2 44 98 0 9
0 0 1
0 1 1
0 2 0
1 0 3
1 1 0
1 2 2
2 0 0
2 1 1
2 2 0
2 22 62 0 9
0 0 0
0 1 0
0 2 1
1 0 1
1 1 1
1 2 0
2 0 1
2 1 1
2 2 0
2 22 75 0 9
0 0 2
0 1 0
0 2 3
1 0 0
1 1 0
1 2 3
2 0 3
2 1 3
2 2 0
2 3 11 0 9
0 0 3
0 1 3
0 2 3
1 0 0
1 1 0
1 2 2
2 0 1
2 1 0
2 2 0
2 73 86 0 9
0 0 3
0 1 2
0 2 0
1 0 0
1 1 2
1 2 0
2 0 1
2 1 0
2 2 3
2 21 59 0 9
0 0 0
0 1 3
0 2 2
1 0 3
1 1 0
1 2 1
2 0 0
2 1 0
2 2 2
2 33 50 0 9
0 0 1
0 1 1
0 2 0
1 0 1
1 1 0
1 2 2
2 0 0
2 1 3
2 2 0
2 36 44 0 9
0 0 3
0 1 0
0 2 0
1 0 1
1 1 3
1 2 2
2 0 1
2 1 0
2 2 0
2 31 85 0 9
0 0 1
0 1 0
0 2 0
1 0 1
1 1 2
1 2 0
2 0 2
2 1 0
2 2 1
2 3 51 0 9
0 0 0
0 1 0
0 2 2
1 0 0
1 1 2
1 2 0
2 0 1
2 1 1
2 2 2
2 14 87 0 9
0 0 2
0 1 0
0 2 2
1 0 0
1 1 0
1 2 1
2 0 0
2 1 2
2 2 1
2 3 30 0 9
0 0 2
0 1 0
0 2 1
1 0 0
1 1 0
1 2 3
2 0 1
2 1 2
2 2 0
2 42 84 0 9
0 0 0
0 1 0
0 2 0
1 0 0
1 1 2
1 2 1
2 0 3
2 1 1
2 2 3
2 24 81 0 9
0 0 0
0 1 3
0 2 0
1 0 0
1 1 1
1 2 3
2 0 0
2 1 2
2 2 2
2 5 53 0 9
0 0 2
0 1 0
0 2 0
1 0 0
1 1 2
1 2 0
2 0 2
2 1 3
2 2 2
2 25 84 0 9
0 0 0
0 1 1
0 2 3
1 0 2
1 1 0
1 2 0
2 0 1
2 1 0
2 2 1
2 47 51 0 9
0 0 3
0 1 2
0 2 3
1 0 0
1 1 0
1 2 3
2 0 0
2 1 3
2 2 0
2 71 97 0 9
0 0 3
0 1 0
0 2 3
1 0 0
1 1 0
1 2 0
2 0 2
2 1 1
2 2 3
2 49 78 0 9
0 0 3
0 1 1
0 2 3
1 0 0
1 1 3
1 2 0
2 0 0
2 1 0
2 2 1
2 9 11 0 9
0 0 3
0 1 0
0 2 2
1 0 0
1 1 2
1 2 0
2 0 0
2 1 1
2 2 2
2 12 31 0 9
0 0 2
0 1 0
0 2 0
1 0 3
1 1 1
1 2 3
2 0 3
2 1 0
2 2 0
2 41 45 0 9
0 0 0
0 1 0
0 2 1
1 0 2
1 1 0
1 2 3
2 0 0
2 1 3
2 2 1
2 32 40 0 9
0 0 3
0 1 1
0 2 0
1 0 3
1 1 3
1 2 0
2 0 0
2 1 2
2 2 0
2 30 40 0 9
0 0 0
0 1 0
0 2 0
1 0 0
1 1 2
1 2 3
2 0 3
2 1 2
2 2 2
2 9 97 0 9
0 0 0
0 1 1
0 2 0
1 0 3
1 1 3
1 2 0
2 0 1
2 1 3
2 2 0
2 17 58 0 9
0 0 1
0 1 3
0 2 1
1 0 0
1 1 0
1 2 0
2 0 1
2 1 2
2 2 0
2 33 49 0 9
0 0 3
0 1 1
0 2 1
1 0 0
1 1 0
1 2 0
2 0 1
2 1 0
2 2 1
2 56 79 0 9
0 0 1
0 1 1
0 2 0
1 0 3
1 1 0
1 2 0
2 0 1
2 1 0
2 2 1
2 25 65 0 9
0 0 0
0 1 1
0 2 1
1 0 0
1 1 0
1 2 3
2 0 0
2 1 1
2 2 3
2 21 81 0 9
0 0 0
0 1 1
0 2 1
1 0 3
1 1 0
1 2 0
2 0 0
2 1 1
2 2 3
2 6 46 0 9
0 0 0
0 1 0
0 2 0
1 0 0
1 1 2
1 2 2
2 0 3
2 1 1
2 2 2
2 14 95 0 9
0 0 2
0 1 0
0 2 0
1 0 2
1 1 0
1 2 2
2 0 1
2 1 2
2 2 0
2 76 85 0 9
0 0 0
0 1 0
0 2 1
1 0 0
1 1 3
1 2 1
2 0 0
2 1 3
2 2 1
2 2 79 0 9
0 0 2
0 1 2
0 2 0
1 0 0
1 1 0
1 2 0
2 0 1
2 1 1
2 2 1
2 31 99 0 9
0 0 0
0 1 3
0 2 0
1 0 3
1 1 1
1 2 0
2 0 2
2 1 2
2 2 0
2 20 40 0 9
0 0 0
0 1 3
0 2 1
1 0 0
1 1 3
1 2 0
2 0 1
2 1 3
2 2 0
2 5 59 0 9
0 0 1
0 1 2
0 2 0
1 0 1
1 1 0
1 2 1
2 0 0
2 1 0
2 2 3
2 3 7 0 9
0 0 3
0 1 1
0 2 3
1 0 0
1 1 1
1 2 0
2 0 3
2 1 0
2 2 0
2 55 63 0 9
0 0 0
0 1 2
0 2 0
1 0 0
1 1 3
1 2 2
2 0 0
2 1 2
2 2 2
2 90 95 0 9
0 0 2
0 1 2
0 2 3
1 0 0
1 1 2
1 2 0
2 0 3
2 1 0
2 2 0
2 51 68 0 9
0 0 2
0 1 1
0 2 3
1 0 0
1 1 0
1 2 0
2 0 3
2 1 1
2 2 0
2 19 40 0 9
0 0 0
0 1 3
0 2 0
1 0 2
1 1 3
1 2 0
2 0 0
2 1 2
2 2 2
2 0 21 0 9
0 0 0
0 1 2
0 2 1
1 0 0
1 1 2
1 2 0
2 0 0
2 1 3
2 2 3
2 24 85 0 9
0 0 2
0 1 2
0 2 0
1 0 3
1 1 0
1 2 2
2 0 3
2 1 0
2 2 0
1 0 512409557603043100 3
0 3
1 1
2 0
1 1 512409557603043100 3
0 1
1 0
2 2
1 2 512409557603043100 3
0 2
1 3
2 0
1 3 512409557603043100 3
0 0
1 0
2 1
1 4 512409557603043100 3
0 2
1 2
2 0
1 5 512409557603043100 3
0 1
1 0
2 1
1 6 512409557603043100 3
0 1
1 2
2 0
1 7 512409557603043100 3
0 0
1 0
2 0
1 8 512409557603043100 3
0 1
1 0
2 0
1 9 512409557603043100 3
0 3
1 1
2 0
1 10 512409557603043100 3
0 0
1 1
2 2
1 11 512409557603043100 3
0 0
1 1
2 0
1 12 512409557603043100 3
0 3
1 0
2 0
1 13 512409557603043100 3
0 1
1 3
2 0
1 14 512409557603043100 3
0 1
1 0
2 1
1 15 512409557603043100 3
0 2
1 2
2 0
1 16 512409557603043100 3
0 0
1 0
2 1
1 17 512409557603043100 3
0 3
1 0
2 2
1 18 512409557603043100 3
0 0
1 2
2 0
1 19 512409557603043100 3
0 0
1 0
2 0
1 20 512409557603043100 3
0 2
1 1
2 0
1 21 512409557603043100 3
0 1
1 0
2 1
1 22 512409557603043100 3
0 1
1 0
2 2
1 23 512409557603043100 3
0 3
1 0
2 3
1 24 512409557603043100 3
0 0
1 0
2 0
1 25 512409557603043100 3
0 0
1 0
2 0
1 26 512409557603043100 3
0 2
1 0
2 0
1 27 512409557603043100 3
0 0
1 1
2 0
1 28 512409557603043100 3
0 3
1 0
2 2
1 29 512409557603043100 3
0 3
1 0
2 1
1 30 512409557603043100 3
0 0
1 2
2 2
1 31 512409557603043100 3
0 1
1 0
2 0
1 32 512409557603043100 3
0 0
1 2
2 1
1 33 512409557603043100 3
0 0
1 3
2 2
1 34 512409557603043100 3
0 0
1 0
2 0
1 35 512409557603043100 3
0 1
1 1
2 0
1 36 512409557603043100 3
0 0
1 1
2 0
1 37 512409557603043100 3
0 0
1 3
2 1
1 38 512409557603043100 3
0 3
1 0
2 2
1 39 512409557603043100 3
0 1
1 0
2 2
1 40 512409557603043100 3
0 3
1 2
2 0
1 41 512409557603043100 3
0 3
1 1
2 0
1 42 512409557603043100 3
0 0
1 1
2 2
1 43 512409557603043100 3
0 1
1 0
2 0
1 44 512409557603043100 3
0 1
1 1
2 0
1 45 512409557603043100 3
0 2
1 0
2 0
1 46 512409557603043100 3
0 0
1 1
2 1
1 47 512409557603043100 3
0 2
1 2
2 0
1 48 512409557603043100 3
0 3
1 0
2 1
1 49 512409557603043100 3
0 0
1 1
2 0
1 50 512409557603043100 3
0 2
1 3
2 0
1 51 512409557603043100 3
0 0
1 0
2 1
1 52 512409557603043100 3
0 0
1 1
2 3
1 53 512409557603043100 3
0 1
1 2
2 0
1 54 512409557603043100 3
0 1
1 1
2 0
1 55 512409557603043100 3
0 2
1 2
2 0
1 56 512409557603043100 3
0 0
1 1
2 2
1 57 512409557603043100 3
0 0
1 2
2 0
1 58 512409557603043100 3
0 0
1 3
2 1
1 59 512409557603043100 3
0 0
1 1
2 2
1 60 512409557603043100 3
0 1
1 0
2 1
1 61 512409557603043100 3
0 2
1 3
2 0
1 62 512409557603043100 3
0 1
1 0
2 1
1 63 512409557603043100 3
0 0
1 2
2 0
1 64 512409557603043100 3
0 2
1 3
2 0
1 65 512409557603043100 3
0 0
1 3
2 2
1 66 512409557603043100 3
0 0
1 0
2 2
1 67 512409557603043100 3
0 1
1 1
2 0
1 68 512409557603043100 3
0 0
1 0
2 0
1 69 512409557603043100 3
0 0
1 2
2 2
1 70 512409557603043100 3
0 1
1 0
2 0
1 71 512409557603043100 3
0 1
1 0
2 1
1 72 512409557603043100 3
0 0
1 2
2 0
1 73 512409557603043100 3
0 0
1 2
2 1
1 74 512409557603043100 3
0 0
1 0
2 0
1 75 512409557603043100 3
0 1
1 0
2 0
1 76 512409557603043100 3
0 0
1 1
2 0
1 77 512409557603043100 3
0 1
1 2
2 0
1 78 512409557603043100 3
0 0
1 1
2 1
1 79 512409557603043100 3
0 0
1 1
2 0
1 80 512409557603043100 3
0 3
1 0
2 0
1 81 512409557603043100 3
0 0
1 2
2 0
1 82 512409557603043100 3
0 2
1 0
2 3
1 83 512409557603043100 3
0 1
1 0
2 1
1 84 512409557603043100 3
0 3
1 0
2 2
1 85 512409557603043100 3
0 0
1 1
2 0
1 86 512409557603043100 3
0 0
1 0
2 1
1 87 512409557603043100 3
0 0
1 0
2 1
1 88 512409557603043100 3
0 2
1 0
2 1
1 89 512409557603043100 3
0 0
1 0
2 3
1 90 512409557603043100 3
0 0
1 1
2 0
1 91 512409557603043100 3
0 2
1 0
2 3
1 92 512409557603043100 3
0 0
1 3
2 0
1 93 512409557603043100 3
0 0
1 1
2 2
1 94 512409557603043100 3
0 0
1 3
2 2
1 95 512409557603043100 3
0 3
1 0
2 1
1 96 512409557603043100 3
0 3
1 0
2 2
1 97 512409557603043100 3
0 0
1 1
2 2
1 98 512409557603043100 3
0 0
1 1
2 1
1 99 512409557603043100 3
0 2
1 0
2 3
0 55 0
